(set-info :smt-lib-version 2.6)
(set-logic LRA)
(set-info :source |
   Monniaux, David; Quantifier Elimination by Lazy Model Enumeration, CAV 2010
|)
(set-info :category "random")
; ./Mjollnir_examples/B2/formula_105.m
(set-info :status unknown)
(assert
 (forall ((|v11:0| Real) )(exists ((|v10:1| Real) )(forall ((|v9:2| Real) )(exists ((|v8:3| Real) )(forall ((|v7:4| Real) )(exists ((|v6:5| Real) )(forall ((|v5:6| Real) )(exists ((|v4:7| Real) )(forall ((|v3:8| Real) )(exists ((|v2:9| Real) )(forall ((|v1:10| Real) )(exists ((|v0:11| Real) )(let ((?x144 (- 7)))
(let ((?x522 (+ (+ (* 11 |v5:6|) (* (- 15) |v2:9|)) (* 5 |v9:2|))))
(let ((?x77 5))
(let ((?x514 (+ (+ (* (- 8) |v6:5|) (* 16 |v8:3|)) (* (- 12) |v4:7|))))
(let (($x526 (and (<= (+ ?x514 (* 3 |v4:7|)) ?x77) (<= (+ ?x522 (* 19 |v0:11|)) ?x144))))
(let ((?x16 (- 10)))
(let ((?x507 (+ (+ (* 20 |v3:8|) (* (- 4) |v8:3|)) (* ?x77 |v10:1|))))
(let ((?x150 13))
(let ((?x499 (+ (+ (* 0 |v4:7|) (* (- 6) |v11:0|)) (* (- 15) |v3:8|))))
(let (($x511 (or (<= (+ ?x499 (* 17 |v11:0|)) ?x150) (<= (+ ?x507 (* (- 11) |v6:5|)) ?x16))))
(let ((?x281 (- 11)))
(let ((?x174 7))
(let ((?x345 (* ?x174 |v10:1|)))
(let ((?x491 (+ (+ (* ?x281 |v11:0|) (* (- 14) |v8:3|)) (* (- 20) |v4:7|))))
(let ((?x140 4))
(let ((?x136 (- 15)))
(let ((?x137 (* ?x136 |v5:6|)))
(let ((?x485 (+ (+ (+ (* (- 13) |v3:8|) (* (- 19) |v2:9|)) ?x137) (* (- 19) |v1:10|))))
(let ((?x29 (- 5)))
(let ((?x33 10))
(let ((?x120 (* ?x33 |v8:3|)))
(let ((?x477 (+ (+ (+ (* 6 |v5:6|) (* (- 8) |v6:5|)) ?x120) (* 8 |v3:8|))))
(let ((?x186 (- 1)))
(let ((?x326 (- 8)))
(let ((?x416 (* ?x326 |v8:3|)))
(let ((?x469 (+ (+ (* 0 |v8:3|) (* (- 14) |v11:0|)) (* (- 3) |v0:11|))))
(let (($x495 (and (or (<= (+ ?x469 ?x416) ?x186) (<= ?x477 ?x29)) (and (<= ?x485 ?x140) (<= (+ ?x491 ?x345) ?x281)))))
(let ((?x54 2))
(let ((?x90 (- 3)))
(let ((?x292 (* ?x90 |v2:9|)))
(let ((?x464 (+ (+ (+ (* ?x33 |v2:9|) (* (- 17) |v0:11|)) ?x292) (* ?x54 |v4:7|))))
(let ((?x58 (- 9)))
(let (($x456 (<= (+ (+ (+ |v5:6| ?x416) (* 11 |v10:1|)) (* ?x54 |v10:1|)) ?x58)))
(let ((?x24 18))
(let ((?x447 (+ (+ (* (- 4) |v7:4|) (* (- 4) |v6:5|)) (* (- 14) |v6:5|))))
(let ((?x65 11))
(let ((?x440 (+ (+ (+ (* 20 |v4:7|) (* ?x150 |v8:3|)) (* ?x174 |v11:0|)) (* 20 |v8:3|))))
(let ((?x433 (+ (+ (+ (* ?x140 |v1:10|) (* 9 |v6:5|)) (* ?x144 |v10:1|)) (* (- 16) |v0:11|))))
(let (($x458 (and (and (<= ?x433 ?x65) (<= ?x440 ?x65)) (or (<= (+ ?x447 (* ?x16 |v7:4|)) ?x24) $x456))))
(let ((?x425 (+ (+ (+ (* 15 |v4:7|) (* ?x186 |v2:9|)) (* ?x136 |v11:0|)) (* 12 |v8:3|))))
(let ((?x49 (- 12)))
(let (($x420 (<= (+ (+ (+ (* ?x174 |v6:5|) (* ?x326 |v11:0|)) ?x416) (* ?x140 |v2:9|)) ?x49)))
(let ((?x183 20))
(let ((?x412 (+ (+ (+ (* ?x16 |v1:10|) (* ?x150 |v4:7|)) (* ?x186 |v2:9|)) (* 15 |v11:0|))))
(let ((?x11 17))
(let ((?x400 (+ (+ (* 6 |v7:4|) (* ?x136 |v2:9|)) (* 16 |v0:11|))))
(let ((?x394 (+ (+ (+ (* ?x24 |v3:8|) (* ?x58 |v6:5|)) (* (- 16) |v3:8|)) (* 9 |v3:8|))))
(let ((?x353 (* ?x54 |v9:2|)))
(let ((?x386 (+ (+ (* (- 18) |v11:0|) (* 19 |v5:6|)) (* ?x65 |v6:5|))))
(let ((?x84 0))
(let ((?x379 (+ (+ (* ?x136 |v9:2|) (* (- 20) |v1:10|)) (* 16 |v3:8|))))
(let (($x405 (or (or (<= (+ ?x379 (* ?x11 |v10:1|)) ?x84) (<= (+ ?x386 ?x353) ?x174)) (or (<= ?x394 ?x186) (<= (+ ?x400 (* (- 20) |v2:9|)) ?x11)))))
(let ((?x50 (* ?x49 |v1:10|)))
(let ((?x371 (+ (+ (+ (* ?x174 |v6:5|) (* 16 |v9:2|)) (* ?x29 |v10:1|)) ?x50)))
(let ((?x278 12))
(let ((?x365 (+ (+ (+ |v0:11| (* 6 |v11:0|)) (* (- 13) |v9:2|)) (* 14 |v1:10|))))
(let ((?x307 (* ?x11 |v0:11|)))
(let (($x358 (<= (+ (+ (+ (* ?x90 |v5:6|) ?x353) (* 16 |v5:6|)) ?x307) ?x90)))
(let ((?x95 (- 2)))
(let ((?x350 (+ (+ (+ ?x345 (* ?x24 |v8:3|)) (* ?x144 |v11:0|)) (* 19 |v3:8|))))
(let (($x406 (or (and (and (<= ?x350 ?x95) $x358) (and (<= ?x365 ?x278) (<= ?x371 ?x11))) $x405)))
(let (($x530 (and (and $x406 (or (and (<= ?x412 ?x183) (and $x420 (<= ?x425 ?x281))) $x458)) (or (<= ?x464 ?x54) (and $x495 (and $x511 $x526))))))
(let ((?x338 (+ (+ (+ ?x137 (* (- 13) |v0:11|)) (* ?x65 |v7:4|)) (* 16 |v4:7|))))
(let ((?x133 (- 13)))
(let ((?x128 (- 17)))
(let ((?x331 (* ?x128 |v0:11|)))
(let (($x333 (<= (+ (+ (+ (* ?x49 |v11:0|) (* ?x326 |v10:1|)) (* ?x144 |v2:9|)) ?x331) ?x133)))
(let ((?x321 (+ (+ (+ (* ?x16 |v6:5|) (* (- 18) |v5:6|)) (* ?x58 |v1:10|)) (* ?x140 |v9:2|))))
(let ((?x312 (+ (+ (+ (* ?x144 |v11:0|) ?x307) (* ?x186 |v9:2|)) (* 14 |v10:1|))))
(let ((?x303 (+ (+ (+ (* (- 6) |v4:7|) (* ?x174 |v4:7|)) (* ?x49 |v9:2|)) (* ?x281 |v7:4|))))
(let ((?x294 (* ?x150 |v8:3|)))
(let (($x296 (<= (+ (+ (+ (* 9 |v6:5|) (* ?x29 |v11:0|)) ?x292) ?x294) ?x133)))
(let ((?x286 6))
(let ((?x253 (* ?x144 |v8:3|)))
(let ((?x285 (+ (+ (+ (* ?x278 |v4:7|) (* ?x281 |v8:3|)) (* 9 |v8:3|)) ?x253)))
(let ((?x250 19))
(let ((?x273 (* ?x84 |v8:3|)))
(let (($x275 (<= (+ (+ (+ (* ?x140 |v10:1|) (* ?x11 |v6:5|)) (* ?x16 |v10:1|)) ?x273) ?x250)))
(let (($x342 (and (or (and $x275 (<= ?x285 ?x286)) (and $x296 (<= ?x303 ?x29))) (and (or (<= ?x312 ?x278) (<= ?x321 ?x49)) (or $x333 (<= ?x338 ?x90))))))
(let ((?x230 14))
(let ((?x263 (* ?x33 |v2:9|)))
(let ((?x262 (+ (+ (* (- 4) |v4:7|) (* (- 16) |v10:1|)) (* ?x140 |v5:6|))))
(let ((?x256 (+ (+ (+ (* (- 4) |v10:1|) (* ?x250 |v5:6|)) ?x253) (* ?x128 |v6:5|))))
(let ((?x61 16))
(let (($x245 (<= (+ (+ (+ (* ?x95 |v11:0|) (* ?x174 |v7:4|)) (* ?x58 |v1:10|)) ?x50) ?x61)))
(let ((?x239 (+ (+ (+ (* ?x29 |v7:4|) (* 8 |v8:3|)) (* ?x150 |v4:7|)) (* ?x186 |v11:0|))))
(let ((?x226 (* ?x24 |v3:8|)))
(let ((?x229 (+ (+ (+ (* 15 |v2:9|) (* 8 |v5:6|)) ?x226) (* ?x77 |v11:0|))))
(let ((?x218 (+ (+ (+ (* (- 16) |v8:3|) (* ?x174 |v6:5|)) (* ?x174 |v1:10|)) (* ?x144 |v7:4|))))
(let (($x267 (and (and (or (<= ?x218 ?x186) (<= ?x229 ?x230)) (and (<= ?x239 ?x24) $x245)) (and (<= ?x256 ?x174) (<= (+ ?x262 ?x263) ?x230)))))
(let ((?x206 (* ?x58 |v1:10|)))
(let ((?x207 (+ (+ (+ (* ?x16 |v5:6|) (* ?x77 |v6:5|)) (* 9 |v5:6|)) ?x206)))
(let ((?x109 (- 14)))
(let ((?x199 (+ (+ (+ (* ?x33 |v1:10|) (* 15 |v8:3|)) |v8:3|) (* ?x29 |v0:11|))))
(let ((?x192 (+ (+ (+ (* ?x183 |v10:1|) (* ?x186 |v7:4|)) (* ?x150 |v5:6|)) (* ?x54 |v0:11|))))
(let ((?x179 (* ?x65 |v5:6|)))
(let ((?x180 (+ (+ (+ (* ?x144 |v10:1|) (* ?x174 |v1:10|)) (* 9 |v7:4|)) ?x179)))
(let (($x210 (and (and (<= ?x180 ?x136) (<= ?x192 ?x95)) (or (<= ?x199 ?x109) (<= ?x207 ?x150)))))
(let ((?x21 15))
(let ((?x167 (+ (+ (+ (* ?x58 |v5:6|) (* (- 6) |v0:11|)) (* ?x21 |v4:7|)) (* ?x58 |v2:9|))))
(let ((?x159 (+ (+ (+ (* ?x150 |v3:8|) (* 9 |v8:3|)) (* ?x77 |v0:11|)) (* ?x49 |v0:11|))))
(let (($x147 (<= (+ (+ (+ (* ?x133 |v5:6|) ?x137) (* ?x140 |v0:11|)) (* ?x144 |v11:0|)) ?x49)))
(let ((?x106 (- 4)))
(let ((?x130 (+ (+ (+ ?x120 (* (- 6) |v6:5|)) (* (- 6) |v11:0|)) (* ?x128 |v7:4|))))
(let (($x211 (and (or (and (<= ?x130 ?x106) $x147) (or (<= ?x159 ?x128) (<= ?x167 ?x21))) $x210)))
(let ((?x115 (+ (+ (+ (* ?x106 |v5:6|) (* ?x109 |v2:9|)) (* (- 20) |v0:11|)) (* ?x106 |v1:10|))))
(let ((?x101 (+ (+ (+ (* ?x90 |v7:4|) (* ?x11 |v7:4|)) (* ?x95 |v11:0|)) (* (- 20) |v8:3|))))
(let ((?x86 (+ (+ (+ (* ?x16 |v2:9|) (* ?x77 |v3:8|)) (* ?x61 |v8:3|)) (* ?x84 |v9:2|))))
(let ((?x71 (+ (+ (+ (* ?x61 |v1:10|) (* ?x65 |v7:4|)) (* ?x65 |v0:11|)) (* ?x61 |v7:4|))))
(let (($x73 (or (<= (+ (+ (+ (* ?x33 |v1:10|) ?x50) (* ?x54 |v8:3|)) |v2:9|) ?x58) (<= ?x71 ?x29))))
(let ((?x43 (- 19)))
(let ((?x42 (+ (+ (+ (* ?x29 |v3:8|) (* ?x33 |v11:0|)) (* (- 16) |v3:8|)) (* ?x29 |v6:5|))))
(let (($x25 (<= (+ (+ (+ |v4:7| (* ?x11 |v2:9|)) (* ?x16 |v0:11|)) (* ?x21 |v1:10|)) ?x24)))
(let (($x119 (or (and (and $x25 (<= ?x42 ?x43)) $x73) (and (<= ?x86 ?x77) (or (<= ?x101 1) (<= ?x115 ?x16))))))
(or (and (and $x119 $x211) (or $x267 $x342)) $x530))))))))))))))))))))))))))))))))))))))))))))))))))))))))))))))))))))))))))))))))))))))))))))))))))))))))))))))))))))
)
)
)
)
)
)
)
)
)
)
)
)
(check-sat)
(exit)

